(set-info :smt-lib-version 2.6)
(set-logic QF_LIA)
(set-info :source |
Older mathsat benchmarks.  Contact Mathsat group at http://mathsat.itc.it/ for
more information.

This benchmark was automatically translated into SMT-LIB format from
CVC format using CVC Lite
|)
(set-info :category "industrial")
(set-info :status unsat)
(declare-fun AT0_PROC3_CS () Bool)
(declare-fun AT1_PROC2_TAU () Bool)
(declare-fun AT1_PROC2_SW_C_CS_TAU () Bool)
(declare-fun AT2_PROC1_X () Int)
(declare-fun AT0_PROC1_X () Int)
(declare-fun AT1_PROC1_SW_B_C_TAU () Bool)
(declare-fun AT3_PROC2_C () Bool)
(declare-fun AT3_PROC2_B () Bool)
(declare-fun AT0_ID0 () Bool)
(declare-fun AT3_PROC2_A () Bool)
(declare-fun AT1_PROC2_C () Bool)
(declare-fun AT0_ID1 () Bool)
(declare-fun AT1_PROC2_B () Bool)
(declare-fun AT0_ID2 () Bool)
(declare-fun AT1_PROC2_A () Bool)
(declare-fun AT0_ID3 () Bool)
(declare-fun AT0_PROC3_SW_CS_A_TAU () Bool)
(declare-fun AT1_PROC2_SW_A_B_TAU () Bool)
(declare-fun AT1_PROC2_CS () Bool)
(declare-fun AT2_PROC1_SW_B_C_TAU () Bool)
(declare-fun AT1_PROC1_WAIT () Bool)
(declare-fun AT0_PROC3_TAU () Bool)
(declare-fun AT2_PROC2_TAU () Bool)
(declare-fun AT2_PROC2_SW_A_B_TAU () Bool)
(declare-fun AT0_PROC2_SW_C_B_TAU () Bool)
(declare-fun AT2_Z () Int)
(declare-fun AT2_PROC1_C () Bool)
(declare-fun AT2_PROC1_B () Bool)
(declare-fun AT2_PROC1_A () Bool)
(declare-fun AT0_PROC1_C () Bool)
(declare-fun AT0_PROC1_B () Bool)
(declare-fun AT0_PROC1_A () Bool)
(declare-fun AT2_PROC1_CS () Bool)
(declare-fun AT1_PROC2_SW_B_C_TAU () Bool)
(declare-fun AT3_PROC3_X () Int)
(declare-fun AT1_PROC3_X () Int)
(declare-fun AT3_PROC3_CS () Bool)
(declare-fun AT1_PROC3_TAU () Bool)
(declare-fun AT2_PROC3_WAIT () Bool)
(declare-fun AT0_PROC3_WAIT () Bool)
(declare-fun AT0_PROC2_CS () Bool)
(declare-fun AT2_PROC2_SW_B_C_TAU () Bool)
(declare-fun AT1_ID0 () Bool)
(declare-fun AT1_ID1 () Bool)
(declare-fun AT1_ID2 () Bool)
(declare-fun AT1_ID3 () Bool)
(declare-fun AT0_PROC1_SW_CS_A_TAU () Bool)
(declare-fun AT2_PROC2_SW_CS_A_TAU () Bool)
(declare-fun AT2_PROC2_X () Int)
(declare-fun AT0_PROC2_X () Int)
(declare-fun AT1_PROC3_CS () Bool)
(declare-fun AT2_PROC3_TAU () Bool)
(declare-fun AT3_PROC3_C () Bool)
(declare-fun AT3_PROC3_B () Bool)
(declare-fun AT3_PROC3_A () Bool)
(declare-fun AT1_PROC3_C () Bool)
(declare-fun AT1_PROC3_B () Bool)
(declare-fun AT1_PROC3_A () Bool)
(declare-fun AT2_PROC3_SW_B_C_TAU () Bool)
(declare-fun AT1_PROC3_WAIT () Bool)
(declare-fun AT1_PROC3_SW_CS_A_TAU () Bool)
(declare-fun AT3_PROC1_X () Int)
(declare-fun AT1_PROC3_SW_B_C_TAU () Bool)
(declare-fun AT1_PROC1_X () Int)
(declare-fun AT2_PROC2_CS () Bool)
(declare-fun AT1_Z () Int)
(declare-fun AT2_PROC3_SW_C_CS_TAU () Bool)
(declare-fun AT2_PROC2_C () Bool)
(declare-fun AT2_PROC2_B () Bool)
(declare-fun AT2_PROC2_A () Bool)
(declare-fun AT0_PROC2_C () Bool)
(declare-fun AT2_ID0 () Bool)
(declare-fun AT0_PROC2_SW_C_CS_TAU () Bool)
(declare-fun AT0_PROC2_B () Bool)
(declare-fun AT2_ID1 () Bool)
(declare-fun AT0_PROC2_A () Bool)
(declare-fun AT2_ID2 () Bool)
(declare-fun AT2_ID3 () Bool)
(declare-fun AT2_PROC3_SW_A_B_TAU () Bool)
(declare-fun AT0_PROC3_SW_B_C_TAU () Bool)
(declare-fun AT2_PROC2_WAIT () Bool)
(declare-fun AT0_PROC1_SW_C_B_TAU () Bool)
(declare-fun AT0_PROC1_CS () Bool)
(declare-fun AT0_PROC1_TAU () Bool)
(declare-fun AT2_PROC1_SW_CS_A_TAU () Bool)
(declare-fun AT0_PROC1_SW_C_CS_TAU () Bool)
(declare-fun AT2_PROC2_SW_C_CS_TAU () Bool)
(declare-fun AT0_PROC1_WAIT () Bool)
(declare-fun AT3_PROC1_CS () Bool)
(declare-fun AT1_PROC3_SW_A_B_TAU () Bool)
(declare-fun AT1_PROC1_SW_C_B_TAU () Bool)
(declare-fun AT3_PROC1_C () Bool)
(declare-fun AT3_PROC1_B () Bool)
(declare-fun AT3_PROC1_A () Bool)
(declare-fun AT1_PROC1_C () Bool)
(declare-fun AT1_PROC1_SW_C_CS_TAU () Bool)
(declare-fun AT1_PROC1_B () Bool)
(declare-fun AT1_PROC1_A () Bool)
(declare-fun AT0_PROC3_SW_A_B_TAU () Bool)
(declare-fun AT2_PROC1_SW_C_B_TAU () Bool)
(declare-fun AT0_DELTA () Bool)
(declare-fun AT1_PROC2_SW_CS_A_TAU () Bool)
(declare-fun AT2_PROC3_X () Int)
(declare-fun AT1_PROC1_TAU () Bool)
(declare-fun AT0_PROC3_X () Int)
(declare-fun AT1_PROC3_SW_C_CS_TAU () Bool)
(declare-fun AT1_PROC2_WAIT () Bool)
(declare-fun AT0_PROC2_SW_B_C_TAU () Bool)
(declare-fun AT1_PROC1_CS () Bool)
(declare-fun AT3_Z () Int)
(declare-fun AT2_PROC3_SW_CS_A_TAU () Bool)
(declare-fun AT0_PROC3_SW_C_CS_TAU () Bool)
(declare-fun AT3_ID0 () Bool)
(declare-fun AT2_PROC3_SW_C_B_TAU () Bool)
(declare-fun AT0_PROC1_SW_A_B_TAU () Bool)
(declare-fun AT2_PROC3_CS () Bool)
(declare-fun AT3_ID1 () Bool)
(declare-fun AT0_PROC2_SW_CS_A_TAU () Bool)
(declare-fun AT3_ID2 () Bool)
(declare-fun AT3_ID3 () Bool)
(declare-fun AT1_DELTA () Bool)
(declare-fun AT1_PROC2_SW_C_B_TAU () Bool)
(declare-fun AT3_PROC2_X () Int)
(declare-fun AT0_PROC2_TAU () Bool)
(declare-fun AT2_PROC1_TAU () Bool)
(declare-fun AT2_PROC1_SW_C_CS_TAU () Bool)
(declare-fun AT1_PROC2_X () Int)
(declare-fun AT1_PROC3_SW_C_B_TAU () Bool)
(declare-fun AT1_PROC1_SW_A_B_TAU () Bool)
(declare-fun AT0_Z () Int)
(declare-fun AT2_PROC1_WAIT () Bool)
(declare-fun AT2_PROC3_C () Bool)
(declare-fun AT2_PROC3_B () Bool)
(declare-fun AT2_PROC2_SW_C_B_TAU () Bool)
(declare-fun AT0_PROC2_SW_A_B_TAU () Bool)
(declare-fun AT2_PROC3_A () Bool)
(declare-fun AT0_PROC3_C () Bool)
(declare-fun AT0_PROC3_B () Bool)
(declare-fun AT0_PROC3_A () Bool)
(declare-fun AT3_PROC2_CS () Bool)
(declare-fun AT1_PROC1_SW_CS_A_TAU () Bool)
(declare-fun AT0_PROC3_SW_C_B_TAU () Bool)
(declare-fun AT0_PROC2_WAIT () Bool)
(declare-fun AT2_PROC1_SW_A_B_TAU () Bool)
(declare-fun AT2_DELTA () Bool)
(declare-fun AT0_PROC1_SW_B_C_TAU () Bool)
(assert (let ((?v_0 (not AT0_PROC1_A)) (?v_1 (not AT0_PROC1_B)) (?v_2 (not AT0_PROC1_C)) (?v_3 (not AT0_PROC1_CS)) (?v_4 (not AT1_PROC1_A)) (?v_5 (not AT1_PROC1_B)) (?v_6 (not AT1_PROC1_C)) (?v_7 (not AT1_PROC1_CS)) (?v_8 (not AT2_PROC1_A)) (?v_9 (not AT2_PROC1_B)) (?v_10 (not AT2_PROC1_C)) (?v_11 (not AT2_PROC1_CS)) (?v_12 (not AT3_PROC1_A)) (?v_13 (not AT3_PROC1_B)) (?v_14 (not AT3_PROC1_C)) (?v_15 (not AT3_PROC1_CS)) (?v_16 (not AT0_PROC2_A)) (?v_17 (not AT0_PROC2_B)) (?v_18 (not AT0_PROC2_C)) (?v_19 (not AT0_PROC2_CS)) (?v_20 (not AT1_PROC2_A)) (?v_21 (not AT1_PROC2_B)) (?v_22 (not AT1_PROC2_C)) (?v_23 (not AT1_PROC2_CS)) (?v_24 (not AT2_PROC2_A)) (?v_25 (not AT2_PROC2_B)) (?v_26 (not AT2_PROC2_C)) (?v_27 (not AT2_PROC2_CS)) (?v_28 (not AT3_PROC2_A)) (?v_29 (not AT3_PROC2_B)) (?v_30 (not AT3_PROC2_C)) (?v_31 (not AT3_PROC2_CS)) (?v_32 (not AT0_PROC3_A)) (?v_33 (not AT0_PROC3_B)) (?v_34 (not AT0_PROC3_C)) (?v_35 (not AT0_PROC3_CS)) (?v_36 (not AT1_PROC3_A)) (?v_37 (not AT1_PROC3_B)) (?v_38 (not AT1_PROC3_C)) (?v_39 (not AT1_PROC3_CS)) (?v_40 (not AT2_PROC3_A)) (?v_41 (not AT2_PROC3_B)) (?v_42 (not AT2_PROC3_C)) (?v_43 (not AT2_PROC3_CS)) (?v_44 (not AT3_PROC3_A)) (?v_45 (not AT3_PROC3_B)) (?v_46 (not AT3_PROC3_C)) (?v_47 (not AT3_PROC3_CS)) (?v_48 (= AT0_PROC1_X AT0_Z)) (?v_49 (> AT0_PROC1_X AT0_Z))) (let ((?v_186 (not ?v_48)) (?v_50 (= AT1_PROC1_X AT1_Z)) (?v_51 (> AT1_PROC1_X AT1_Z))) (let ((?v_185 (not ?v_50)) (?v_52 (= AT2_PROC1_X AT2_Z)) (?v_53 (> AT2_PROC1_X AT2_Z))) (let ((?v_191 (not ?v_52)) (?v_54 (= AT3_PROC1_X AT3_Z)) (?v_55 (> AT3_PROC1_X AT3_Z))) (let ((?v_197 (not ?v_54)) (?v_56 (= AT0_PROC2_X AT0_Z)) (?v_57 (> AT0_PROC2_X AT0_Z))) (let ((?v_203 (not ?v_56)) (?v_58 (= AT1_PROC2_X AT1_Z)) (?v_59 (> AT1_PROC2_X AT1_Z))) (let ((?v_202 (not ?v_58)) (?v_60 (= AT2_PROC2_X AT2_Z)) (?v_61 (> AT2_PROC2_X AT2_Z))) (let ((?v_206 (not ?v_60)) (?v_62 (= AT3_PROC2_X AT3_Z)) (?v_63 (> AT3_PROC2_X AT3_Z))) (let ((?v_210 (not ?v_62)) (?v_64 (= AT0_PROC3_X AT0_Z)) (?v_65 (> AT0_PROC3_X AT0_Z))) (let ((?v_215 (not ?v_64)) (?v_66 (= AT1_PROC3_X AT1_Z)) (?v_67 (> AT1_PROC3_X AT1_Z))) (let ((?v_214 (not ?v_66)) (?v_68 (= AT2_PROC3_X AT2_Z)) (?v_69 (> AT2_PROC3_X AT2_Z))) (let ((?v_218 (not ?v_68)) (?v_70 (= AT3_PROC3_X AT3_Z)) (?v_71 (> AT3_PROC3_X AT3_Z))) (let ((?v_222 (not ?v_70)) (?v_77 (- AT0_PROC1_X AT0_Z))) (let ((?v_74 (<= ?v_77 10)) (?v_84 (- AT1_PROC1_X AT1_Z))) (let ((?v_81 (<= ?v_84 10)) (?v_91 (- AT2_PROC1_X AT2_Z))) (let ((?v_88 (<= ?v_91 10)) (?v_101 (- AT0_PROC2_X AT0_Z))) (let ((?v_98 (<= ?v_101 10)) (?v_108 (- AT1_PROC2_X AT1_Z))) (let ((?v_105 (<= ?v_108 10)) (?v_115 (- AT2_PROC2_X AT2_Z))) (let ((?v_112 (<= ?v_115 10)) (?v_122 (- AT0_PROC3_X AT0_Z))) (let ((?v_119 (<= ?v_122 10)) (?v_129 (- AT1_PROC3_X AT1_Z))) (let ((?v_126 (<= ?v_129 10)) (?v_136 (- AT2_PROC3_X AT2_Z))) (let ((?v_133 (<= ?v_136 10)) (?v_72 (not AT0_PROC1_SW_A_B_TAU)) (?v_73 (not AT0_PROC1_SW_B_C_TAU)) (?v_75 (not AT0_PROC1_SW_C_B_TAU)) (?v_76 (not AT0_PROC1_SW_C_CS_TAU)) (?v_139 (= AT1_PROC1_X AT0_PROC1_X)) (?v_78 (not AT0_PROC1_SW_CS_A_TAU)) (?v_79 (not AT1_PROC1_SW_A_B_TAU)) (?v_80 (not AT1_PROC1_SW_B_C_TAU)) (?v_82 (not AT1_PROC1_SW_C_B_TAU)) (?v_83 (not AT1_PROC1_SW_C_CS_TAU)) (?v_141 (= AT2_PROC1_X AT1_PROC1_X)) (?v_85 (not AT1_PROC1_SW_CS_A_TAU)) (?v_86 (not AT2_PROC1_SW_A_B_TAU)) (?v_87 (not AT2_PROC1_SW_B_C_TAU)) (?v_89 (not AT2_PROC1_SW_C_B_TAU)) (?v_90 (not AT2_PROC1_SW_C_CS_TAU)) (?v_143 (= AT3_PROC1_X AT2_PROC1_X)) (?v_92 (not AT2_PROC1_SW_CS_A_TAU)) (?v_93 (= AT1_Z AT0_Z)) (?v_94 (= AT2_Z AT1_Z)) (?v_95 (= AT3_Z AT2_Z)) (?v_96 (not AT0_PROC2_SW_A_B_TAU)) (?v_97 (not AT0_PROC2_SW_B_C_TAU)) (?v_99 (not AT0_PROC2_SW_C_B_TAU)) (?v_100 (not AT0_PROC2_SW_C_CS_TAU)) (?v_145 (= AT1_PROC2_X AT0_PROC2_X)) (?v_102 (not AT0_PROC2_SW_CS_A_TAU)) (?v_103 (not AT1_PROC2_SW_A_B_TAU)) (?v_104 (not AT1_PROC2_SW_B_C_TAU)) (?v_106 (not AT1_PROC2_SW_C_B_TAU)) (?v_107 (not AT1_PROC2_SW_C_CS_TAU)) (?v_147 (= AT2_PROC2_X AT1_PROC2_X)) (?v_109 (not AT1_PROC2_SW_CS_A_TAU)) (?v_110 (not AT2_PROC2_SW_A_B_TAU)) (?v_111 (not AT2_PROC2_SW_B_C_TAU)) (?v_113 (not AT2_PROC2_SW_C_B_TAU)) (?v_114 (not AT2_PROC2_SW_C_CS_TAU)) (?v_149 (= AT3_PROC2_X AT2_PROC2_X)) (?v_116 (not AT2_PROC2_SW_CS_A_TAU)) (?v_117 (not AT0_PROC3_SW_A_B_TAU)) (?v_118 (not AT0_PROC3_SW_B_C_TAU)) (?v_120 (not AT0_PROC3_SW_C_B_TAU)) (?v_121 (not AT0_PROC3_SW_C_CS_TAU)) (?v_151 (= AT1_PROC3_X AT0_PROC3_X)) (?v_123 (not AT0_PROC3_SW_CS_A_TAU)) (?v_124 (not AT1_PROC3_SW_A_B_TAU)) (?v_125 (not AT1_PROC3_SW_B_C_TAU)) (?v_127 (not AT1_PROC3_SW_C_B_TAU)) (?v_128 (not AT1_PROC3_SW_C_CS_TAU)) (?v_153 (= AT2_PROC3_X AT1_PROC3_X)) (?v_130 (not AT1_PROC3_SW_CS_A_TAU)) (?v_131 (not AT2_PROC3_SW_A_B_TAU)) (?v_132 (not AT2_PROC3_SW_B_C_TAU)) (?v_134 (not AT2_PROC3_SW_C_B_TAU)) (?v_135 (not AT2_PROC3_SW_C_CS_TAU)) (?v_155 (= AT3_PROC3_X AT2_PROC3_X)) (?v_137 (not AT2_PROC3_SW_CS_A_TAU)) (?v_138 (not AT0_PROC1_WAIT)) (?v_157 (not AT0_PROC1_TAU)) (?v_140 (not AT1_PROC1_WAIT)) (?v_159 (not AT1_PROC1_TAU)) (?v_142 (not AT2_PROC1_WAIT)) (?v_161 (not AT2_PROC1_TAU)) (?v_144 (not AT0_PROC2_WAIT)) (?v_162 (not AT0_PROC2_TAU)) (?v_146 (not AT1_PROC2_WAIT)) (?v_164 (not AT1_PROC2_TAU)) (?v_148 (not AT2_PROC2_WAIT)) (?v_166 (not AT2_PROC2_TAU)) (?v_150 (not AT0_PROC3_WAIT)) (?v_168 (not AT0_PROC3_TAU)) (?v_152 (not AT1_PROC3_WAIT)) (?v_169 (not AT1_PROC3_TAU)) (?v_154 (not AT2_PROC3_WAIT)) (?v_170 (not AT2_PROC3_TAU)) (?v_156 (not AT0_DELTA)) (?v_180 (< AT1_Z AT0_Z))) (let ((?v_163 (or ?v_156 ?v_180)) (?v_158 (not AT1_DELTA)) (?v_181 (< AT2_Z AT1_Z))) (let ((?v_165 (or ?v_158 ?v_181)) (?v_160 (not AT2_DELTA)) (?v_182 (< AT3_Z AT2_Z))) (let ((?v_167 (or ?v_160 ?v_182)) (?v_171 (< AT1_PROC1_X AT0_PROC1_X)) (?v_183 (not ?v_139)) (?v_172 (< AT2_PROC1_X AT1_PROC1_X)) (?v_189 (not ?v_141)) (?v_173 (< AT3_PROC1_X AT2_PROC1_X)) (?v_195 (not ?v_143)) (?v_174 (< AT1_PROC2_X AT0_PROC2_X)) (?v_201 (not ?v_145)) (?v_175 (< AT2_PROC2_X AT1_PROC2_X)) (?v_205 (not ?v_147)) (?v_176 (< AT3_PROC2_X AT2_PROC2_X)) (?v_209 (not ?v_149)) (?v_177 (< AT1_PROC3_X AT0_PROC3_X)) (?v_213 (not ?v_151)) (?v_178 (< AT2_PROC3_X AT1_PROC3_X)) (?v_217 (not ?v_153)) (?v_179 (< AT3_PROC3_X AT2_PROC3_X)) (?v_221 (not ?v_155)) (?v_184 (not ?v_93)) (?v_188 (not ?v_180)) (?v_190 (not ?v_94)) (?v_194 (not ?v_181)) (?v_196 (not ?v_95)) (?v_200 (not ?v_182))) (let ((?v_187 (or ?v_186 ?v_183)) (?v_193 (< AT1_Z AT1_PROC1_X)) (?v_192 (or ?v_185 ?v_189)) (?v_199 (< AT2_Z AT2_PROC1_X)) (?v_198 (or ?v_191 ?v_195)) (?v_204 (or ?v_203 ?v_201)) (?v_208 (< AT1_Z AT1_PROC2_X)) (?v_207 (or ?v_202 ?v_205)) (?v_212 (< AT2_Z AT2_PROC2_X)) (?v_211 (or ?v_206 ?v_209)) (?v_216 (or ?v_215 ?v_213)) (?v_220 (< AT1_Z AT1_PROC3_X)) (?v_219 (or ?v_214 ?v_217)) (?v_224 (< AT2_Z AT2_PROC3_X)) (?v_223 (or ?v_218 ?v_221)) (?v_225 (not AT0_ID0)) (?v_226 (not AT0_ID1)) (?v_227 (not AT0_ID2)) (?v_228 (not AT0_ID3)) (?v_229 (not AT1_ID0)) (?v_230 (not AT1_ID1)) (?v_231 (not AT1_ID2)) (?v_232 (not AT1_ID3)) (?v_233 (not AT2_ID0)) (?v_234 (not AT2_ID1)) (?v_235 (not AT2_ID2)) (?v_236 (not AT2_ID3)) (?v_237 (not AT3_ID0)) (?v_238 (not AT3_ID1)) (?v_239 (not AT3_ID2)) (?v_240 (not AT3_ID3)) (?v_241 (- AT3_PROC1_X AT3_Z)) (?v_242 (- AT3_PROC2_X AT3_Z)) (?v_243 (- AT3_PROC3_X AT3_Z))) (and (and (and (and (and (and (and (and (and (and (and (and (and (and (and (and (and (and (and (and (and (and (and (and (and (and (and (and (and (and (and (and (and (and (and (and (and (and (and (and (and (and (and (and (and (and (and (and (and (and (and (and (and (and (and (and (and (and (and (and (and (and (and (and (and (and (and (and (and (and (and (and (and (and (and (and (and (and (and (and (and (and (and (and (and (and (and (and (and (and (and (and (and (and (and (and (and (and (and (and (and (and (and (and (and (and (and (and (and (and (and (and (and (and (and (and (and (and (and (and (and (and (and (and (and (and (and (and (and (and (and (and (and (and (and (and (and (and (and (and (and (and (and (and (and (and (and (and (and (and (and (and (and (and (and (and (and (and (and (and (and (and (and (and (and (and (and (and (and (and (and (and (and (and (and (and (and (and (and (and (and (and (and (and (and (and (and (and (and (and (and (and (and (and (and (and (and (and (and (and (and (and (and (and (and (and (and (and (and (and (and (and (and (and (and (and (and (and (and (and (and (and (and (and (and (and (and (and (and (and (and (and (and (and (and (and (and (and (and (and (and (and (and (and (and (and (and (and (and (and (and (and (and (and (and (and (and (and (and (and (and (and (and (and (and (and (and (and (and (and (and (and (and (and (and (and (and (and (and (and (and (and (and (and (and (and (and (and (and (and (and (and (and (and (and (and (and (and (and (and (and (and (and (and (and (and (and (and (and (and (and (and (and (and (and (and (and (and (and (and (and (and (and (and (and (and (and (and (and (and (and (and (and (and (and (and (and (and (and (and (and (and (and (and (and (and (and (and (and (and (and (and (and (and (and (and (and (and (and (and (and (and (and (and (and (and (and (and (and (and (and (and (and (and (and (and (and (and (and (and (and (and (and (and (and (and (and (and (and (and (and (and (and (and (and (and (and (and (and (and (and (and (and (and (and (and (and (and (and (and (and (and (and (and (and (and (and (and (and (and (and (and (and (and (and (and (and (and (and (and (and (and (and (and (and (and (and (and (and (and (and (and (and (and (and (and (and (and (and (and (and (and (and (and (and (and (and (and (and (and (and (and (and (and (and (and (and (and (and (and (and (and (and (and (and (and (and (and (and (and (and (and (and (and (and (and (and (and (and (and (and (and (and (and (and (and (and (and (and (and (and (and (and (and (and (and (and (and (and (and (and (and (and (and (and (and (and (and (and (and (and (and (and (and (and (and (and (and (and (and (and (and (and (and (and (and (and (and (and (and (and (and (and (and (and (and (and (and (and (and (and (and (and (and (and (and (and (and (and (and (and (and (and (and (and (and (and (and (and (and (and (and (and (and (and (and (and (and (and (and (and (and (and (and (and (and (and (and (and (and (and (and (and (and (and (and (and (and (and (and (and (and (and (and (and (and (and (and (and (and (and (and (and (and (and (and (and (and (and (and (and (and (and (and (and (and (and (and (and (and (and (and (and (and (and (and (and (and (and (and (and (and (and (and (and (and (and (and (and (and (and (and (and (and (and (and (and (and (and (and (and (and (and (and (and (and (and (and (and (and (and (and (and (and (and (and (and (and (and (and (and (and (and (and (and (and (and (and (and (and (and (and (and (and (and (and (and (and (and (and (and (and (and (and (and (and (and (and (and (and (and (and (and (and (and (and (and (and (and (and (and (and (and (and (and (and (and (and (and (and (and (and (and (and (and (and (and (and (and (and (and (and (and (and (and (and (and (and (and (and (and (and (and (and (and (and (and (and (and (and (and (and (and (and (and (and (and (and (and (and (and (and (and (and (and (and (and (and (and (and (and (and (and (or ?v_0 ?v_1) (or ?v_0 ?v_2)) (or ?v_0 ?v_3)) (or ?v_1 ?v_2)) (or ?v_1 ?v_3)) (or ?v_2 ?v_3)) (or ?v_4 ?v_5)) (or ?v_4 ?v_6)) (or ?v_4 ?v_7)) (or ?v_5 ?v_6)) (or ?v_5 ?v_7)) (or ?v_6 ?v_7)) (or ?v_8 ?v_9)) (or ?v_8 ?v_10)) (or ?v_8 ?v_11)) (or ?v_9 ?v_10)) (or ?v_9 ?v_11)) (or ?v_10 ?v_11)) (or ?v_12 ?v_13)) (or ?v_12 ?v_14)) (or ?v_12 ?v_15)) (or ?v_13 ?v_14)) (or ?v_13 ?v_15)) (or ?v_14 ?v_15)) (or ?v_16 ?v_17)) (or ?v_16 ?v_18)) (or ?v_16 ?v_19)) (or ?v_17 ?v_18)) (or ?v_17 ?v_19)) (or ?v_18 ?v_19)) (or ?v_20 ?v_21)) (or ?v_20 ?v_22)) (or ?v_20 ?v_23)) (or ?v_21 ?v_22)) (or ?v_21 ?v_23)) (or ?v_22 ?v_23)) (or ?v_24 ?v_25)) (or ?v_24 ?v_26)) (or ?v_24 ?v_27)) (or ?v_25 ?v_26)) (or ?v_25 ?v_27)) (or ?v_26 ?v_27)) (or ?v_28 ?v_29)) (or ?v_28 ?v_30)) (or ?v_28 ?v_31)) (or ?v_29 ?v_30)) (or ?v_29 ?v_31)) (or ?v_30 ?v_31)) (or ?v_32 ?v_33)) (or ?v_32 ?v_34)) (or ?v_32 ?v_35)) (or ?v_33 ?v_34)) (or ?v_33 ?v_35)) (or ?v_34 ?v_35)) (or ?v_36 ?v_37)) (or ?v_36 ?v_38)) (or ?v_36 ?v_39)) (or ?v_37 ?v_38)) (or ?v_37 ?v_39)) (or ?v_38 ?v_39)) (or ?v_40 ?v_41)) (or ?v_40 ?v_42)) (or ?v_40 ?v_43)) (or ?v_41 ?v_42)) (or ?v_41 ?v_43)) (or ?v_42 ?v_43)) (or ?v_44 ?v_45)) (or ?v_44 ?v_46)) (or ?v_44 ?v_47)) (or ?v_45 ?v_46)) (or ?v_45 ?v_47)) (or ?v_46 ?v_47)) (or ?v_48 ?v_49)) (or ?v_186 (not ?v_49))) (or ?v_50 ?v_51)) (or ?v_185 (not ?v_51))) (or ?v_52 ?v_53)) (or ?v_191 (not ?v_53))) (or ?v_54 ?v_55)) (or ?v_197 (not ?v_55))) (or ?v_56 ?v_57)) (or ?v_203 (not ?v_57))) (or ?v_58 ?v_59)) (or ?v_202 (not ?v_59))) (or ?v_60 ?v_61)) (or ?v_206 (not ?v_61))) (or ?v_62 ?v_63)) (or ?v_210 (not ?v_63))) (or ?v_64 ?v_65)) (or ?v_215 (not ?v_65))) (or ?v_66 ?v_67)) (or ?v_214 (not ?v_67))) (or ?v_68 ?v_69)) (or ?v_218 (not ?v_69))) (or ?v_70 ?v_71)) (or ?v_222 (not ?v_71))) (or ?v_1 ?v_74)) (or ?v_5 ?v_81)) (or ?v_9 ?v_88)) (or ?v_13 (<= ?v_241 10))) (or ?v_17 ?v_98)) (or ?v_21 ?v_105)) (or ?v_25 ?v_112)) (or ?v_29 (<= ?v_242 10))) (or ?v_33 ?v_119)) (or ?v_37 ?v_126)) (or ?v_41 ?v_133)) (or ?v_45 (<= ?v_243 10))) (or (or (or (or (or (or AT0_PROC1_WAIT AT0_DELTA) AT0_PROC1_SW_A_B_TAU) AT0_PROC1_SW_B_C_TAU) AT0_PROC1_SW_C_B_TAU) AT0_PROC1_SW_C_CS_TAU) AT0_PROC1_SW_CS_A_TAU)) (or (or (or (or (or (or AT1_PROC1_WAIT AT1_DELTA) AT1_PROC1_SW_A_B_TAU) AT1_PROC1_SW_B_C_TAU) AT1_PROC1_SW_C_B_TAU) AT1_PROC1_SW_C_CS_TAU) AT1_PROC1_SW_CS_A_TAU)) (or (or (or (or (or (or AT2_PROC1_WAIT AT2_DELTA) AT2_PROC1_SW_A_B_TAU) AT2_PROC1_SW_B_C_TAU) AT2_PROC1_SW_C_B_TAU) AT2_PROC1_SW_C_CS_TAU) AT2_PROC1_SW_CS_A_TAU)) (or (or (or (or (or (or AT0_PROC2_WAIT AT0_DELTA) AT0_PROC2_SW_A_B_TAU) AT0_PROC2_SW_B_C_TAU) AT0_PROC2_SW_C_B_TAU) AT0_PROC2_SW_C_CS_TAU) AT0_PROC2_SW_CS_A_TAU)) (or (or (or (or (or (or AT1_PROC2_WAIT AT1_DELTA) AT1_PROC2_SW_A_B_TAU) AT1_PROC2_SW_B_C_TAU) AT1_PROC2_SW_C_B_TAU) AT1_PROC2_SW_C_CS_TAU) AT1_PROC2_SW_CS_A_TAU)) (or (or (or (or (or (or AT2_PROC2_WAIT AT2_DELTA) AT2_PROC2_SW_A_B_TAU) AT2_PROC2_SW_B_C_TAU) AT2_PROC2_SW_C_B_TAU) AT2_PROC2_SW_C_CS_TAU) AT2_PROC2_SW_CS_A_TAU)) (or (or (or (or (or (or AT0_PROC3_WAIT AT0_DELTA) AT0_PROC3_SW_A_B_TAU) AT0_PROC3_SW_B_C_TAU) AT0_PROC3_SW_C_B_TAU) AT0_PROC3_SW_C_CS_TAU) AT0_PROC3_SW_CS_A_TAU)) (or (or (or (or (or (or AT1_PROC3_WAIT AT1_DELTA) AT1_PROC3_SW_A_B_TAU) AT1_PROC3_SW_B_C_TAU) AT1_PROC3_SW_C_B_TAU) AT1_PROC3_SW_C_CS_TAU) AT1_PROC3_SW_CS_A_TAU)) (or (or (or (or (or (or AT2_PROC3_WAIT AT2_DELTA) AT2_PROC3_SW_A_B_TAU) AT2_PROC3_SW_B_C_TAU) AT2_PROC3_SW_C_B_TAU) AT2_PROC3_SW_C_CS_TAU) AT2_PROC3_SW_CS_A_TAU)) (or ?v_72 AT0_PROC1_A)) (or ?v_72 AT0_PROC1_TAU)) (or ?v_72 AT1_PROC1_B)) (or ?v_72 ?v_50)) (or ?v_73 AT0_PROC1_B)) (or ?v_73 AT0_PROC1_TAU)) (or ?v_73 AT1_PROC1_C)) (or ?v_73 ?v_74)) (or ?v_73 ?v_50)) (or ?v_75 AT0_PROC1_C)) (or ?v_75 AT0_PROC1_TAU)) (or ?v_75 AT1_PROC1_B)) (or ?v_75 ?v_50)) (or ?v_76 AT0_PROC1_C)) (or ?v_76 AT0_PROC1_TAU)) (or ?v_76 AT1_PROC1_CS)) (or ?v_76 (> ?v_77 10))) (or ?v_76 ?v_139)) (or ?v_78 AT0_PROC1_CS)) (or ?v_78 AT0_PROC1_TAU)) (or ?v_78 AT1_PROC1_A)) (or ?v_78 ?v_50)) (or ?v_79 AT1_PROC1_A)) (or ?v_79 AT1_PROC1_TAU)) (or ?v_79 AT2_PROC1_B)) (or ?v_79 ?v_52)) (or ?v_80 AT1_PROC1_B)) (or ?v_80 AT1_PROC1_TAU)) (or ?v_80 AT2_PROC1_C)) (or ?v_80 ?v_81)) (or ?v_80 ?v_52)) (or ?v_82 AT1_PROC1_C)) (or ?v_82 AT1_PROC1_TAU)) (or ?v_82 AT2_PROC1_B)) (or ?v_82 ?v_52)) (or ?v_83 AT1_PROC1_C)) (or ?v_83 AT1_PROC1_TAU)) (or ?v_83 AT2_PROC1_CS)) (or ?v_83 (> ?v_84 10))) (or ?v_83 ?v_141)) (or ?v_85 AT1_PROC1_CS)) (or ?v_85 AT1_PROC1_TAU)) (or ?v_85 AT2_PROC1_A)) (or ?v_85 ?v_52)) (or ?v_86 AT2_PROC1_A)) (or ?v_86 AT2_PROC1_TAU)) (or ?v_86 AT3_PROC1_B)) (or ?v_86 ?v_54)) (or ?v_87 AT2_PROC1_B)) (or ?v_87 AT2_PROC1_TAU)) (or ?v_87 AT3_PROC1_C)) (or ?v_87 ?v_88)) (or ?v_87 ?v_54)) (or ?v_89 AT2_PROC1_C)) (or ?v_89 AT2_PROC1_TAU)) (or ?v_89 AT3_PROC1_B)) (or ?v_89 ?v_54)) (or ?v_90 AT2_PROC1_C)) (or ?v_90 AT2_PROC1_TAU)) (or ?v_90 AT3_PROC1_CS)) (or ?v_90 (> ?v_91 10))) (or ?v_90 ?v_143)) (or ?v_92 AT2_PROC1_CS)) (or ?v_92 AT2_PROC1_TAU)) (or ?v_92 AT3_PROC1_A)) (or ?v_92 ?v_54)) (or ?v_72 ?v_93)) (or ?v_73 ?v_93)) (or ?v_75 ?v_93)) (or ?v_76 ?v_93)) (or ?v_78 ?v_93)) (or ?v_79 ?v_94)) (or ?v_80 ?v_94)) (or ?v_82 ?v_94)) (or ?v_83 ?v_94)) (or ?v_85 ?v_94)) (or ?v_86 ?v_95)) (or ?v_87 ?v_95)) (or ?v_89 ?v_95)) (or ?v_90 ?v_95)) (or ?v_92 ?v_95)) (or ?v_96 AT0_PROC2_A)) (or ?v_96 AT0_PROC2_TAU)) (or ?v_96 AT1_PROC2_B)) (or ?v_96 ?v_58)) (or ?v_97 AT0_PROC2_B)) (or ?v_97 AT0_PROC2_TAU)) (or ?v_97 AT1_PROC2_C)) (or ?v_97 ?v_98)) (or ?v_97 ?v_58)) (or ?v_99 AT0_PROC2_C)) (or ?v_99 AT0_PROC2_TAU)) (or ?v_99 AT1_PROC2_B)) (or ?v_99 ?v_58)) (or ?v_100 AT0_PROC2_C)) (or ?v_100 AT0_PROC2_TAU)) (or ?v_100 AT1_PROC2_CS)) (or ?v_100 (> ?v_101 10))) (or ?v_100 ?v_145)) (or ?v_102 AT0_PROC2_CS)) (or ?v_102 AT0_PROC2_TAU)) (or ?v_102 AT1_PROC2_A)) (or ?v_102 ?v_58)) (or ?v_103 AT1_PROC2_A)) (or ?v_103 AT1_PROC2_TAU)) (or ?v_103 AT2_PROC2_B)) (or ?v_103 ?v_60)) (or ?v_104 AT1_PROC2_B)) (or ?v_104 AT1_PROC2_TAU)) (or ?v_104 AT2_PROC2_C)) (or ?v_104 ?v_105)) (or ?v_104 ?v_60)) (or ?v_106 AT1_PROC2_C)) (or ?v_106 AT1_PROC2_TAU)) (or ?v_106 AT2_PROC2_B)) (or ?v_106 ?v_60)) (or ?v_107 AT1_PROC2_C)) (or ?v_107 AT1_PROC2_TAU)) (or ?v_107 AT2_PROC2_CS)) (or ?v_107 (> ?v_108 10))) (or ?v_107 ?v_147)) (or ?v_109 AT1_PROC2_CS)) (or ?v_109 AT1_PROC2_TAU)) (or ?v_109 AT2_PROC2_A)) (or ?v_109 ?v_60)) (or ?v_110 AT2_PROC2_A)) (or ?v_110 AT2_PROC2_TAU)) (or ?v_110 AT3_PROC2_B)) (or ?v_110 ?v_62)) (or ?v_111 AT2_PROC2_B)) (or ?v_111 AT2_PROC2_TAU)) (or ?v_111 AT3_PROC2_C)) (or ?v_111 ?v_112)) (or ?v_111 ?v_62)) (or ?v_113 AT2_PROC2_C)) (or ?v_113 AT2_PROC2_TAU)) (or ?v_113 AT3_PROC2_B)) (or ?v_113 ?v_62)) (or ?v_114 AT2_PROC2_C)) (or ?v_114 AT2_PROC2_TAU)) (or ?v_114 AT3_PROC2_CS)) (or ?v_114 (> ?v_115 10))) (or ?v_114 ?v_149)) (or ?v_116 AT2_PROC2_CS)) (or ?v_116 AT2_PROC2_TAU)) (or ?v_116 AT3_PROC2_A)) (or ?v_116 ?v_62)) (or ?v_96 ?v_93)) (or ?v_97 ?v_93)) (or ?v_99 ?v_93)) (or ?v_100 ?v_93)) (or ?v_102 ?v_93)) (or ?v_103 ?v_94)) (or ?v_104 ?v_94)) (or ?v_106 ?v_94)) (or ?v_107 ?v_94)) (or ?v_109 ?v_94)) (or ?v_110 ?v_95)) (or ?v_111 ?v_95)) (or ?v_113 ?v_95)) (or ?v_114 ?v_95)) (or ?v_116 ?v_95)) (or ?v_117 AT0_PROC3_A)) (or ?v_117 AT0_PROC3_TAU)) (or ?v_117 AT1_PROC3_B)) (or ?v_117 ?v_66)) (or ?v_118 AT0_PROC3_B)) (or ?v_118 AT0_PROC3_TAU)) (or ?v_118 AT1_PROC3_C)) (or ?v_118 ?v_119)) (or ?v_118 ?v_66)) (or ?v_120 AT0_PROC3_C)) (or ?v_120 AT0_PROC3_TAU)) (or ?v_120 AT1_PROC3_B)) (or ?v_120 ?v_66)) (or ?v_121 AT0_PROC3_C)) (or ?v_121 AT0_PROC3_TAU)) (or ?v_121 AT1_PROC3_CS)) (or ?v_121 (> ?v_122 10))) (or ?v_121 ?v_151)) (or ?v_123 AT0_PROC3_CS)) (or ?v_123 AT0_PROC3_TAU)) (or ?v_123 AT1_PROC3_A)) (or ?v_123 ?v_66)) (or ?v_124 AT1_PROC3_A)) (or ?v_124 AT1_PROC3_TAU)) (or ?v_124 AT2_PROC3_B)) (or ?v_124 ?v_68)) (or ?v_125 AT1_PROC3_B)) (or ?v_125 AT1_PROC3_TAU)) (or ?v_125 AT2_PROC3_C)) (or ?v_125 ?v_126)) (or ?v_125 ?v_68)) (or ?v_127 AT1_PROC3_C)) (or ?v_127 AT1_PROC3_TAU)) (or ?v_127 AT2_PROC3_B)) (or ?v_127 ?v_68)) (or ?v_128 AT1_PROC3_C)) (or ?v_128 AT1_PROC3_TAU)) (or ?v_128 AT2_PROC3_CS)) (or ?v_128 (> ?v_129 10))) (or ?v_128 ?v_153)) (or ?v_130 AT1_PROC3_CS)) (or ?v_130 AT1_PROC3_TAU)) (or ?v_130 AT2_PROC3_A)) (or ?v_130 ?v_68)) (or ?v_131 AT2_PROC3_A)) (or ?v_131 AT2_PROC3_TAU)) (or ?v_131 AT3_PROC3_B)) (or ?v_131 ?v_70)) (or ?v_132 AT2_PROC3_B)) (or ?v_132 AT2_PROC3_TAU)) (or ?v_132 AT3_PROC3_C)) (or ?v_132 ?v_133)) (or ?v_132 ?v_70)) (or ?v_134 AT2_PROC3_C)) (or ?v_134 AT2_PROC3_TAU)) (or ?v_134 AT3_PROC3_B)) (or ?v_134 ?v_70)) (or ?v_135 AT2_PROC3_C)) (or ?v_135 AT2_PROC3_TAU)) (or ?v_135 AT3_PROC3_CS)) (or ?v_135 (> ?v_136 10))) (or ?v_135 ?v_155)) (or ?v_137 AT2_PROC3_CS)) (or ?v_137 AT2_PROC3_TAU)) (or ?v_137 AT3_PROC3_A)) (or ?v_137 ?v_70)) (or ?v_117 ?v_93)) (or ?v_118 ?v_93)) (or ?v_120 ?v_93)) (or ?v_121 ?v_93)) (or ?v_123 ?v_93)) (or ?v_124 ?v_94)) (or ?v_125 ?v_94)) (or ?v_127 ?v_94)) (or ?v_128 ?v_94)) (or ?v_130 ?v_94)) (or ?v_131 ?v_95)) (or ?v_132 ?v_95)) (or ?v_134 ?v_95)) (or ?v_135 ?v_95)) (or ?v_137 ?v_95)) (or (or ?v_138 ?v_0) AT1_PROC1_A)) (or (or ?v_138 AT0_PROC1_A) ?v_4)) (or (or ?v_138 ?v_1) AT1_PROC1_B)) (or (or ?v_138 AT0_PROC1_B) ?v_5)) (or (or ?v_138 ?v_2) AT1_PROC1_C)) (or (or ?v_138 AT0_PROC1_C) ?v_6)) (or (or ?v_138 ?v_3) AT1_PROC1_CS)) (or (or ?v_138 AT0_PROC1_CS) ?v_7)) (or ?v_138 ?v_157)) (or ?v_138 ?v_139)) (or ?v_138 ?v_93)) (or (or ?v_140 ?v_4) AT2_PROC1_A)) (or (or ?v_140 AT1_PROC1_A) ?v_8)) (or (or ?v_140 ?v_5) AT2_PROC1_B)) (or (or ?v_140 AT1_PROC1_B) ?v_9)) (or (or ?v_140 ?v_6) AT2_PROC1_C)) (or (or ?v_140 AT1_PROC1_C) ?v_10)) (or (or ?v_140 ?v_7) AT2_PROC1_CS)) (or (or ?v_140 AT1_PROC1_CS) ?v_11)) (or ?v_140 ?v_159)) (or ?v_140 ?v_141)) (or ?v_140 ?v_94)) (or (or ?v_142 ?v_8) AT3_PROC1_A)) (or (or ?v_142 AT2_PROC1_A) ?v_12)) (or (or ?v_142 ?v_9) AT3_PROC1_B)) (or (or ?v_142 AT2_PROC1_B) ?v_13)) (or (or ?v_142 ?v_10) AT3_PROC1_C)) (or (or ?v_142 AT2_PROC1_C) ?v_14)) (or (or ?v_142 ?v_11) AT3_PROC1_CS)) (or (or ?v_142 AT2_PROC1_CS) ?v_15)) (or ?v_142 ?v_161)) (or ?v_142 ?v_143)) (or ?v_142 ?v_95)) (or (or ?v_144 ?v_16) AT1_PROC2_A)) (or (or ?v_144 AT0_PROC2_A) ?v_20)) (or (or ?v_144 ?v_17) AT1_PROC2_B)) (or (or ?v_144 AT0_PROC2_B) ?v_21)) (or (or ?v_144 ?v_18) AT1_PROC2_C)) (or (or ?v_144 AT0_PROC2_C) ?v_22)) (or (or ?v_144 ?v_19) AT1_PROC2_CS)) (or (or ?v_144 AT0_PROC2_CS) ?v_23)) (or ?v_144 ?v_162)) (or ?v_144 ?v_145)) (or ?v_144 ?v_93)) (or (or ?v_146 ?v_20) AT2_PROC2_A)) (or (or ?v_146 AT1_PROC2_A) ?v_24)) (or (or ?v_146 ?v_21) AT2_PROC2_B)) (or (or ?v_146 AT1_PROC2_B) ?v_25)) (or (or ?v_146 ?v_22) AT2_PROC2_C)) (or (or ?v_146 AT1_PROC2_C) ?v_26)) (or (or ?v_146 ?v_23) AT2_PROC2_CS)) (or (or ?v_146 AT1_PROC2_CS) ?v_27)) (or ?v_146 ?v_164)) (or ?v_146 ?v_147)) (or ?v_146 ?v_94)) (or (or ?v_148 ?v_24) AT3_PROC2_A)) (or (or ?v_148 AT2_PROC2_A) ?v_28)) (or (or ?v_148 ?v_25) AT3_PROC2_B)) (or (or ?v_148 AT2_PROC2_B) ?v_29)) (or (or ?v_148 ?v_26) AT3_PROC2_C)) (or (or ?v_148 AT2_PROC2_C) ?v_30)) (or (or ?v_148 ?v_27) AT3_PROC2_CS)) (or (or ?v_148 AT2_PROC2_CS) ?v_31)) (or ?v_148 ?v_166)) (or ?v_148 ?v_149)) (or ?v_148 ?v_95)) (or (or ?v_150 ?v_32) AT1_PROC3_A)) (or (or ?v_150 AT0_PROC3_A) ?v_36)) (or (or ?v_150 ?v_33) AT1_PROC3_B)) (or (or ?v_150 AT0_PROC3_B) ?v_37)) (or (or ?v_150 ?v_34) AT1_PROC3_C)) (or (or ?v_150 AT0_PROC3_C) ?v_38)) (or (or ?v_150 ?v_35) AT1_PROC3_CS)) (or (or ?v_150 AT0_PROC3_CS) ?v_39)) (or ?v_150 ?v_168)) (or ?v_150 ?v_151)) (or ?v_150 ?v_93)) (or (or ?v_152 ?v_36) AT2_PROC3_A)) (or (or ?v_152 AT1_PROC3_A) ?v_40)) (or (or ?v_152 ?v_37) AT2_PROC3_B)) (or (or ?v_152 AT1_PROC3_B) ?v_41)) (or (or ?v_152 ?v_38) AT2_PROC3_C)) (or (or ?v_152 AT1_PROC3_C) ?v_42)) (or (or ?v_152 ?v_39) AT2_PROC3_CS)) (or (or ?v_152 AT1_PROC3_CS) ?v_43)) (or ?v_152 ?v_169)) (or ?v_152 ?v_153)) (or ?v_152 ?v_94)) (or (or ?v_154 ?v_40) AT3_PROC3_A)) (or (or ?v_154 AT2_PROC3_A) ?v_44)) (or (or ?v_154 ?v_41) AT3_PROC3_B)) (or (or ?v_154 AT2_PROC3_B) ?v_45)) (or (or ?v_154 ?v_42) AT3_PROC3_C)) (or (or ?v_154 AT2_PROC3_C) ?v_46)) (or (or ?v_154 ?v_43) AT3_PROC3_CS)) (or (or ?v_154 AT2_PROC3_CS) ?v_47)) (or ?v_154 ?v_170)) (or ?v_154 ?v_155)) (or ?v_154 ?v_95)) (or (or ?v_156 ?v_0) AT1_PROC1_A)) (or (or ?v_156 AT0_PROC1_A) ?v_4)) (or (or ?v_156 ?v_1) AT1_PROC1_B)) (or (or ?v_156 AT0_PROC1_B) ?v_5)) (or (or ?v_156 ?v_2) AT1_PROC1_C)) (or (or ?v_156 AT0_PROC1_C) ?v_6)) (or (or ?v_156 ?v_3) AT1_PROC1_CS)) (or (or ?v_156 AT0_PROC1_CS) ?v_7)) (or ?v_156 ?v_139)) (or ?v_156 ?v_157)) ?v_163) (or (or ?v_158 ?v_4) AT2_PROC1_A)) (or (or ?v_158 AT1_PROC1_A) ?v_8)) (or (or ?v_158 ?v_5) AT2_PROC1_B)) (or (or ?v_158 AT1_PROC1_B) ?v_9)) (or (or ?v_158 ?v_6) AT2_PROC1_C)) (or (or ?v_158 AT1_PROC1_C) ?v_10)) (or (or ?v_158 ?v_7) AT2_PROC1_CS)) (or (or ?v_158 AT1_PROC1_CS) ?v_11)) (or ?v_158 ?v_141)) (or ?v_158 ?v_159)) ?v_165) (or (or ?v_160 ?v_8) AT3_PROC1_A)) (or (or ?v_160 AT2_PROC1_A) ?v_12)) (or (or ?v_160 ?v_9) AT3_PROC1_B)) (or (or ?v_160 AT2_PROC1_B) ?v_13)) (or (or ?v_160 ?v_10) AT3_PROC1_C)) (or (or ?v_160 AT2_PROC1_C) ?v_14)) (or (or ?v_160 ?v_11) AT3_PROC1_CS)) (or (or ?v_160 AT2_PROC1_CS) ?v_15)) (or ?v_160 ?v_143)) (or ?v_160 ?v_161)) ?v_167) (or (or ?v_156 ?v_16) AT1_PROC2_A)) (or (or ?v_156 AT0_PROC2_A) ?v_20)) (or (or ?v_156 ?v_17) AT1_PROC2_B)) (or (or ?v_156 AT0_PROC2_B) ?v_21)) (or (or ?v_156 ?v_18) AT1_PROC2_C)) (or (or ?v_156 AT0_PROC2_C) ?v_22)) (or (or ?v_156 ?v_19) AT1_PROC2_CS)) (or (or ?v_156 AT0_PROC2_CS) ?v_23)) (or ?v_156 ?v_145)) (or ?v_156 ?v_162)) ?v_163) (or (or ?v_158 ?v_20) AT2_PROC2_A)) (or (or ?v_158 AT1_PROC2_A) ?v_24)) (or (or ?v_158 ?v_21) AT2_PROC2_B)) (or (or ?v_158 AT1_PROC2_B) ?v_25)) (or (or ?v_158 ?v_22) AT2_PROC2_C)) (or (or ?v_158 AT1_PROC2_C) ?v_26)) (or (or ?v_158 ?v_23) AT2_PROC2_CS)) (or (or ?v_158 AT1_PROC2_CS) ?v_27)) (or ?v_158 ?v_147)) (or ?v_158 ?v_164)) ?v_165) (or (or ?v_160 ?v_24) AT3_PROC2_A)) (or (or ?v_160 AT2_PROC2_A) ?v_28)) (or (or ?v_160 ?v_25) AT3_PROC2_B)) (or (or ?v_160 AT2_PROC2_B) ?v_29)) (or (or ?v_160 ?v_26) AT3_PROC2_C)) (or (or ?v_160 AT2_PROC2_C) ?v_30)) (or (or ?v_160 ?v_27) AT3_PROC2_CS)) (or (or ?v_160 AT2_PROC2_CS) ?v_31)) (or ?v_160 ?v_149)) (or ?v_160 ?v_166)) ?v_167) (or (or ?v_156 ?v_32) AT1_PROC3_A)) (or (or ?v_156 AT0_PROC3_A) ?v_36)) (or (or ?v_156 ?v_33) AT1_PROC3_B)) (or (or ?v_156 AT0_PROC3_B) ?v_37)) (or (or ?v_156 ?v_34) AT1_PROC3_C)) (or (or ?v_156 AT0_PROC3_C) ?v_38)) (or (or ?v_156 ?v_35) AT1_PROC3_CS)) (or (or ?v_156 AT0_PROC3_CS) ?v_39)) (or ?v_156 ?v_151)) (or ?v_156 ?v_168)) ?v_163) (or (or ?v_158 ?v_36) AT2_PROC3_A)) (or (or ?v_158 AT1_PROC3_A) ?v_40)) (or (or ?v_158 ?v_37) AT2_PROC3_B)) (or (or ?v_158 AT1_PROC3_B) ?v_41)) (or (or ?v_158 ?v_38) AT2_PROC3_C)) (or (or ?v_158 AT1_PROC3_C) ?v_42)) (or (or ?v_158 ?v_39) AT2_PROC3_CS)) (or (or ?v_158 AT1_PROC3_CS) ?v_43)) (or ?v_158 ?v_153)) (or ?v_158 ?v_169)) ?v_165) (or (or ?v_160 ?v_40) AT3_PROC3_A)) (or (or ?v_160 AT2_PROC3_A) ?v_44)) (or (or ?v_160 ?v_41) AT3_PROC3_B)) (or (or ?v_160 AT2_PROC3_B) ?v_45)) (or (or ?v_160 ?v_42) AT3_PROC3_C)) (or (or ?v_160 AT2_PROC3_C) ?v_46)) (or (or ?v_160 ?v_43) AT3_PROC3_CS)) (or (or ?v_160 AT2_PROC3_CS) ?v_47)) (or ?v_160 ?v_155)) (or ?v_160 ?v_170)) ?v_167) (or ?v_139 ?v_171)) (or ?v_183 (not ?v_171))) (or ?v_141 ?v_172)) (or ?v_189 (not ?v_172))) (or ?v_143 ?v_173)) (or ?v_195 (not ?v_173))) (or ?v_145 ?v_174)) (or ?v_201 (not ?v_174))) (or ?v_147 ?v_175)) (or ?v_205 (not ?v_175))) (or ?v_149 ?v_176)) (or ?v_209 (not ?v_176))) (or ?v_151 ?v_177)) (or ?v_213 (not ?v_177))) (or ?v_153 ?v_178)) (or ?v_217 (not ?v_178))) (or ?v_155 ?v_179)) (or ?v_221 (not ?v_179))) (or ?v_156 ?v_158)) (or ?v_158 ?v_160)) (or ?v_93 ?v_180)) (or ?v_184 ?v_188)) (or ?v_94 ?v_181)) (or ?v_190 ?v_194)) (or ?v_95 ?v_182)) (or ?v_196 ?v_200)) (or (or (or ?v_48 ?v_183) ?v_184) ?v_185)) (or (or (or ?v_186 ?v_139) ?v_184) ?v_185)) (or (or ?v_187 ?v_93) ?v_185)) (or (or ?v_187 ?v_184) ?v_50)) (or (or (or (not (< AT0_Z AT0_PROC1_X)) ?v_183) ?v_188) ?v_193)) (or (or (or ?v_50 ?v_189) ?v_190) ?v_191)) (or (or (or ?v_185 ?v_141) ?v_190) ?v_191)) (or (or ?v_192 ?v_94) ?v_191)) (or (or ?v_192 ?v_190) ?v_52)) (or (or (or (not ?v_193) ?v_189) ?v_194) ?v_199)) (or (or (or ?v_52 ?v_195) ?v_196) ?v_197)) (or (or (or ?v_191 ?v_143) ?v_196) ?v_197)) (or (or ?v_198 ?v_95) ?v_197)) (or (or ?v_198 ?v_196) ?v_54)) (or (or (or (not ?v_199) ?v_195) ?v_200) (< AT3_Z AT3_PROC1_X))) (or (or (or ?v_56 ?v_201) ?v_184) ?v_202)) (or (or (or ?v_203 ?v_145) ?v_184) ?v_202)) (or (or ?v_204 ?v_93) ?v_202)) (or (or ?v_204 ?v_184) ?v_58)) (or (or (or (not (< AT0_Z AT0_PROC2_X)) ?v_201) ?v_188) ?v_208)) (or (or (or ?v_58 ?v_205) ?v_190) ?v_206)) (or (or (or ?v_202 ?v_147) ?v_190) ?v_206)) (or (or ?v_207 ?v_94) ?v_206)) (or (or ?v_207 ?v_190) ?v_60)) (or (or (or (not ?v_208) ?v_205) ?v_194) ?v_212)) (or (or (or ?v_60 ?v_209) ?v_196) ?v_210)) (or (or (or ?v_206 ?v_149) ?v_196) ?v_210)) (or (or ?v_211 ?v_95) ?v_210)) (or (or ?v_211 ?v_196) ?v_62)) (or (or (or (not ?v_212) ?v_209) ?v_200) (< AT3_Z AT3_PROC2_X))) (or (or (or ?v_64 ?v_213) ?v_184) ?v_214)) (or (or (or ?v_215 ?v_151) ?v_184) ?v_214)) (or (or ?v_216 ?v_93) ?v_214)) (or (or ?v_216 ?v_184) ?v_66)) (or (or (or (not (< AT0_Z AT0_PROC3_X)) ?v_213) ?v_188) ?v_220)) (or (or (or ?v_66 ?v_217) ?v_190) ?v_218)) (or (or (or ?v_214 ?v_153) ?v_190) ?v_218)) (or (or ?v_219 ?v_94) ?v_218)) (or (or ?v_219 ?v_190) ?v_68)) (or (or (or (not ?v_220) ?v_217) ?v_194) ?v_224)) (or (or (or ?v_68 ?v_221) ?v_196) ?v_222)) (or (or (or ?v_218 ?v_155) ?v_196) ?v_222)) (or (or ?v_223 ?v_95) ?v_222)) (or (or ?v_223 ?v_196) ?v_70)) (or (or (or (not ?v_224) ?v_221) ?v_200) (< AT3_Z AT3_PROC3_X))) AT0_PROC1_A) AT0_PROC2_A) AT0_PROC3_A) ?v_48) ?v_56) ?v_64) AT0_ID0) (or (or ?v_138 ?v_144) ?v_150)) (or (or ?v_140 ?v_146) ?v_152)) (or (or ?v_142 ?v_148) ?v_154)) (or ?v_225 ?v_226)) (or ?v_225 ?v_227)) (or ?v_225 ?v_228)) (or ?v_226 ?v_227)) (or ?v_226 ?v_228)) (or ?v_227 ?v_228)) (or ?v_229 ?v_230)) (or ?v_229 ?v_231)) (or ?v_229 ?v_232)) (or ?v_230 ?v_231)) (or ?v_230 ?v_232)) (or ?v_231 ?v_232)) (or ?v_233 ?v_234)) (or ?v_233 ?v_235)) (or ?v_233 ?v_236)) (or ?v_234 ?v_235)) (or ?v_234 ?v_236)) (or ?v_235 ?v_236)) (or ?v_237 ?v_238)) (or ?v_237 ?v_239)) (or ?v_237 ?v_240)) (or ?v_238 ?v_239)) (or ?v_238 ?v_240)) (or ?v_239 ?v_240)) (or ?v_72 AT0_ID0)) (or ?v_72 AT1_ID0)) (or ?v_73 AT1_ID1)) (or ?v_75 AT0_ID0)) (or ?v_75 AT1_ID0)) (or ?v_76 AT0_ID1)) (or ?v_76 AT1_ID1)) (or ?v_78 AT1_ID0)) (or (or ?v_156 ?v_226) AT1_ID1)) (or ?v_96 AT0_ID0)) (or ?v_96 AT1_ID0)) (or ?v_97 AT1_ID2)) (or ?v_99 AT0_ID0)) (or ?v_99 AT1_ID0)) (or ?v_100 AT0_ID2)) (or ?v_100 AT1_ID2)) (or ?v_102 AT1_ID0)) (or (or ?v_156 ?v_227) AT1_ID2)) (or ?v_117 AT0_ID0)) (or ?v_117 AT1_ID0)) (or ?v_118 AT1_ID3)) (or ?v_120 AT0_ID0)) (or ?v_120 AT1_ID0)) (or ?v_121 AT0_ID3)) (or ?v_121 AT1_ID3)) (or ?v_123 AT1_ID0)) (or (or ?v_156 ?v_228) AT1_ID3)) (or (or ?v_156 ?v_225) AT1_ID0)) (or ?v_79 AT1_ID0)) (or ?v_79 AT2_ID0)) (or ?v_80 AT2_ID1)) (or ?v_82 AT1_ID0)) (or ?v_82 AT2_ID0)) (or ?v_83 AT1_ID1)) (or ?v_83 AT2_ID1)) (or ?v_85 AT2_ID0)) (or (or ?v_158 ?v_230) AT2_ID1)) (or ?v_103 AT1_ID0)) (or ?v_103 AT2_ID0)) (or ?v_104 AT2_ID2)) (or ?v_106 AT1_ID0)) (or ?v_106 AT2_ID0)) (or ?v_107 AT1_ID2)) (or ?v_107 AT2_ID2)) (or ?v_109 AT2_ID0)) (or (or ?v_158 ?v_231) AT2_ID2)) (or ?v_124 AT1_ID0)) (or ?v_124 AT2_ID0)) (or ?v_125 AT2_ID3)) (or ?v_127 AT1_ID0)) (or ?v_127 AT2_ID0)) (or ?v_128 AT1_ID3)) (or ?v_128 AT2_ID3)) (or ?v_130 AT2_ID0)) (or (or ?v_158 ?v_232) AT2_ID3)) (or (or ?v_158 ?v_229) AT2_ID0)) (or ?v_86 AT2_ID0)) (or ?v_86 AT3_ID0)) (or ?v_87 AT3_ID1)) (or ?v_89 AT2_ID0)) (or ?v_89 AT3_ID0)) (or ?v_90 AT2_ID1)) (or ?v_90 AT3_ID1)) (or ?v_92 AT3_ID0)) (or (or ?v_160 ?v_234) AT3_ID1)) (or ?v_110 AT2_ID0)) (or ?v_110 AT3_ID0)) (or ?v_111 AT3_ID2)) (or ?v_113 AT2_ID0)) (or ?v_113 AT3_ID0)) (or ?v_114 AT2_ID2)) (or ?v_114 AT3_ID2)) (or ?v_116 AT3_ID0)) (or (or ?v_160 ?v_235) AT3_ID2)) (or ?v_131 AT2_ID0)) (or ?v_131 AT3_ID0)) (or ?v_132 AT3_ID3)) (or ?v_134 AT2_ID0)) (or ?v_134 AT3_ID0)) (or ?v_135 AT2_ID3)) (or ?v_135 AT3_ID3)) (or ?v_137 AT3_ID0)) (or (or ?v_160 ?v_236) AT3_ID3)) (or (or ?v_160 ?v_233) AT3_ID0)) (or ?v_4 AT3_PROC1_A)) (or AT1_PROC1_A ?v_12)) (or ?v_5 AT3_PROC1_B)) (or AT1_PROC1_B ?v_13)) (or ?v_6 AT3_PROC1_C)) (or AT1_PROC1_C ?v_14)) (or ?v_7 AT3_PROC1_CS)) (or AT1_PROC1_CS ?v_15)) (or ?v_230 AT3_ID1)) (or AT1_ID1 ?v_238)) (= ?v_84 ?v_241)) (or ?v_20 AT3_PROC2_A)) (or AT1_PROC2_A ?v_28)) (or ?v_21 AT3_PROC2_B)) (or AT1_PROC2_B ?v_29)) (or ?v_22 AT3_PROC2_C)) (or AT1_PROC2_C ?v_30)) (or ?v_23 AT3_PROC2_CS)) (or AT1_PROC2_CS ?v_31)) (or ?v_231 AT3_ID2)) (or AT1_ID2 ?v_239)) (= ?v_108 ?v_242)) (or ?v_36 AT3_PROC3_A)) (or AT1_PROC3_A ?v_44)) (or ?v_37 AT3_PROC3_B)) (or AT1_PROC3_B ?v_45)) (or ?v_38 AT3_PROC3_C)) (or AT1_PROC3_C ?v_46)) (or ?v_39 AT3_PROC3_CS)) (or AT1_PROC3_CS ?v_47)) (or ?v_232 AT3_ID3)) (or AT1_ID3 ?v_240)) (= ?v_129 ?v_243)) (or (or AT1_PROC1_B AT2_PROC1_B) AT3_PROC1_B)) ?v_7) ?v_11) ?v_15))))))))))))))))))))))))))))
(check-sat)
(exit)
